conp
title
ASE calculation
end

cell
3.5355 3.5355 3.5355 60.0 60.0 60.0
cell
 3.535534  3.535534  3.535534 60.00000 60.00000 60.00000
frac
 Mg core  0.0000000   0.0000000   0.0000000
 O  core  0.5000000   0.5000000   0.5000000

library ionic.lib
dump every 1 noover mgo_opt.grs
