conp phon
title
ASE calculation
end

cell
2.9783 2.9783 2.9783 60.0 60.0 60.0
cell
 2.978334  2.978334  2.978334 60.00000 60.00000 60.00000
frac
 Mg core  0.0000000   0.0000000   0.0000000
 O  core  0.5000000   0.5000000   0.5000000

library ionic.lib
shrink 16 16 16
dispersion 1 1000
0.5 0.25 0.75 to 0.5 0.5 0.5 to 0 0 0 to 0.5 0 0.5 to 0.5 0.25 0.75
output phon mgo_ph
output eig mgo_ph
