conp phon
title
ASE calculation
end

cell
2.9783 2.9783 2.9783 60.0 60.0 60.0
cell
 2.978334  2.978334  2.978334 60.00000 60.00000 60.00000
frac
 Mg core  0.0000000   0.0000000   0.0000000
 O  core  0.5000000   0.5000000   0.5000000

library ionic.lib
shrink 12 12 12
output phon mgo_ph_dos_12
