montecarlo conv full nosym
title
Example of use of mcswap option to exchange Si and Ge in a
zeolite structure. Note that potentials are not real ones!
end
cell
  20.073614  19.692667  13.344911  90.000000  90.000000  90.000000 
fractional   64
Si   core  0.42446338   0.05836516   0.66992092 
Ge   core  0.31189715   0.02990790   0.81806214 
Si   core  0.27869107   0.05563061   0.03876211 
Si   core  0.12278714   0.06379817   0.03223457 
Si   core  0.07273430   0.03184854   0.81948286 
Si   core  0.19156930   0.06618700   0.68753927 
Ge   core  0.42388095   0.82830628   0.68213420 
Si   core  0.30831546   0.87114810   0.81761170 
Si   core  0.26906535   0.82991420   0.03113723 
Ge   core  0.11601172   0.82761885   0.02729469 
Si   core  0.07000104   0.87356454   0.81559721 
Si   core  0.18759506   0.82743665   0.68341125 
O    core  0.37501521   0.06328650   0.76378011 
O    core  0.31842993   0.04490453   0.93563203 
O    core  0.20065756   0.05231416   0.01658109 
O    core  0.08624064   0.06647369   0.92612109 
O    core  0.11829322   0.06453715   0.73396615 
O    core  0.24463313   0.06359770   0.77719986 
O    core  0.37383362   0.83489796   0.77525259 
O    core  0.30802377   0.85864847   0.93561354 
O    core  0.19231865   0.85232098   0.02183213 
O    core  0.08288723   0.83498615   0.91913146 
O    core  0.11488759   0.84234394   0.72792926 
O    core  0.24202433   0.83984108   0.76951676 
O    core  0.31081847   0.95040160   0.79213773 
O    core  0.08789919   0.95217150   0.82865574 
O    core  0.42299911   0.12834247   0.60877835 
O    core  0.40681763   0.99710297   0.59661992 
O    core  0.39148321   0.86485097   0.58603557 
O    core  0.19916429   0.13695983   0.62955882 
O    core  0.20144567   0.00370165   0.61338869 
O    core  0.20098784   0.87243949   0.58555644 
O    core  0.99766880   0.04674220   0.78598658 
O    core  0.99317862   0.86309156   0.78577612 
O    core  0.43493114   0.75000000   0.65425107 
O    core  0.19122772   0.75000000   0.64741644 
O    core  0.27793409   0.75000000   0.03934681 
O    core  0.11136823   0.75000000   0.06229607 
space
P N M A         
temperature 300 K
mcmove 0.0
mcswap only 1.0 2 Si Ge
#
mctrial 1000
species 
Si    core    4.000000
Ge    core    4.000000
O     core   -2.000000
buck
O    core O    core   22764.000000 0.149000   27.88000  0.000 12.000
buck
Si   core O    core    1283.907000 0.320520   10.66158  0.000 12.000
Ge   core O    core    1383.907000 0.310520    0.00000  0.000 12.000
dump every   1 example59.res                      
