opti conp phon noden alamode nosym full shopt 
name example67
cell
4.212 4.212 4.212 90 90 90
frac
Mg core 0.000000 0.000000 0.000000
O  core 0.500000 0.500000 0.500000
O  shel 0.500000 0.500000 0.500000
space
225
temperature 300 
super 2 2 2
ala_disp 0.01 0.04
ala_cutoff 4.4
ala_shrink 10 10 10 
ala_processor 4
species
Mg core  2.0
O  core  0.86902
O  shel -2.86902
buck
Mg core O shel  1285.0 0.300  0.0 0.0 12.0
O  shel O shel 22764.0 0.149 27.8 0.0 12.0
spring
O 74.92

