grad conv qok 
cell
  19.48651443  19.48651443  19.48651443  90.00000000  90.00000000  90.00000000
fractional  1   
Ca    core  0.0 0.0 0.0 
O2    core  0.374376900  0.799664300  0.913131900  0.0000000  1.0000  0.0000
O2    core  0.254275704  0.202531373  0.954569914  0.0000000  1.0000  0.0000
O2    core  0.335889684  0.837393774  0.263204872  0.0000000  1.0000  0.0000
O2    core  0.942790996  0.087570612  0.648558251  0.0000000  1.0000  0.0000
O2    core  0.909178222  0.493469313  0.997028278  0.0000000  1.0000  0.0000
O2    core  0.916677596  0.264297777  0.751669956  0.0000000  1.0000  0.0000
O2    core  0.639003546  0.259050463  0.004543729  0.0000000  1.0000  0.0000
O2    core  0.007317417  0.694116720  0.396480176  0.0000000  1.0000  0.0000
O2    core  0.038484436  0.119453862  0.954417905  0.0000000  1.0000  0.0000
O2    core  0.171958495  0.966584271  0.894088686  0.0000000  1.0000  0.0000
O2    core  0.646343479  0.084415393  0.826933018  0.0000000  1.0000  0.0000
O2    core  0.794955419  0.002617221  0.955757047  0.0000000  1.0000  0.0000
O2    core  0.299760722  0.349963084  0.519670669  0.0000000  1.0000  0.0000
O2    core  0.661131025  0.465753766  0.645567514  0.0000000  1.0000  0.0000
O2    core  0.740226241  0.854505111  0.522948129  0.0000000  1.0000  0.0000
O2    core  0.108112003  0.627122883  0.553448041  0.0000000  1.0000  0.0000
O2    core  0.049339959  0.260387384  0.951174228  0.0000000  1.0000  0.0000
O2    core  0.496235121  0.954563498  0.321938781  0.0000000  1.0000  0.0000
O2    core  0.702729211  0.556525291  0.471500375  0.0000000  1.0000  0.0000
O2    core  0.071174750  0.357679369  0.603447527  0.0000000  1.0000  0.0000
O2    core  0.826134838  0.278087431  0.444877326  0.0000000  1.0000  0.0000
O2    core  0.167923810  0.260003939  0.369735322  0.0000000  1.0000  0.0000
O2    core  0.983883313  0.067167863  0.832594189  0.0000000  1.0000  0.0000
O2    core  0.536669835  0.404685859  0.263519454  0.0000000  1.0000  0.0000
O2    core  0.836701673  0.573575593  0.789019495  0.0000000  1.0000  0.0000
O2    core  0.010766711  0.521466584  0.091449161  0.0000000  1.0000  0.0000
O2    core  0.646066550  0.953544982  0.556840616  0.0000000  1.0000  0.0000
O2    core  0.507618273  0.959926932  0.087937339  0.0000000  1.0000  0.0000
O2    core  0.662284974  0.219642417  0.868082478  0.0000000  1.0000  0.0000
O2    core  0.146760046  0.318238773  0.096174589  0.0000000  1.0000  0.0000
O2    core  0.316560451  0.140271701  0.144524894  0.0000000  1.0000  0.0000
O2    core  0.653630482  0.198985822  0.527651331  0.0000000  1.0000  0.0000
O2    core  0.726673277  0.426894763  0.947785669  0.0000000  1.0000  0.0000
O2    core  0.827879251  0.764100694  0.590859023  0.0000000  1.0000  0.0000
O2    core  0.482062162  0.228085887  0.877130008  0.0000000  1.0000  0.0000
O2    core  0.860265151  0.543823658  0.652827753  0.0000000  1.0000  0.0000
O2    core  0.989642935  0.158724053  0.184203050  0.0000000  1.0000  0.0000
O2    core  0.449451454  0.528504555  0.990691565  0.0000000  1.0000  0.0000
O2    core  0.668291457  0.119769220  0.692204957  0.0000000  1.0000  0.0000
O2    core  0.046209012  0.708681229  0.185118733  0.0000000  1.0000  0.0000
O2    core  0.758117213  0.485233113  0.232933195  0.0000000  1.0000  0.0000
O2    core  0.977382537  0.921191771  0.830946758  0.0000000  1.0000  0.0000
O2    core  0.056897020  0.906018796  0.377688310  0.0000000  1.0000  0.0000
O2    core  0.866911755  0.227157121  0.162493038  0.0000000  1.0000  0.0000
O2    core  0.350068510  0.111367605  0.008241073  0.0000000  1.0000  0.0000
O2    core  0.475024951  0.883937188  0.841209523  0.0000000  1.0000  0.0000
O2    core  0.938465359  0.691949312  0.930533188  0.0000000  1.0000  0.0000
O2    core  0.582846960  0.000142958  0.210333203  0.0000000  1.0000  0.0000
O2    core  0.780925350  0.805888595  0.834279186  0.0000000  1.0000  0.0000
O2    core  0.440075102  0.591139783  0.214576342  0.0000000  1.0000  0.0000
O2    core  0.892696669  0.363571905  0.196407170  0.0000000  1.0000  0.0000
O2    core  0.017844377  0.384008157  0.124157715  0.0000000  1.0000  0.0000
O2    core  0.376702211  0.015364915  0.372219796  0.0000000  1.0000  0.0000
O2    core  0.971041037  0.584514747  0.840555462  0.0000000  1.0000  0.0000
O2    core  0.276718842  0.270252169  0.270017296  0.0000000  1.0000  0.0000
O2    core  0.291940208  0.684046385  0.666595008  0.0000000  1.0000  0.0000
O2    core  0.435343789  0.344069961  0.471946748  0.0000000  1.0000  0.0000
O2    core  0.643942581  0.925281048  0.326661400  0.0000000  1.0000  0.0000
O2    core  0.264173986  0.927354463  0.170811593  0.0000000  1.0000  0.0000
O2    core  0.095118213  0.451078579  0.852652460  0.0000000  1.0000  0.0000
O2    core  0.308921316  0.543205574  0.621040343  0.0000000  1.0000  0.0000
O2    core  0.275004433  0.321021171  0.877050017  0.0000000  1.0000  0.0000
O2    core  0.514451055  0.377617987  0.584189818  0.0000000  1.0000  0.0000
O2    core  0.491173811  0.256619977  0.656424411  0.0000000  1.0000  0.0000
O2    core  0.814139340  0.593568358  0.161496856  0.0000000  1.0000  0.0000
O2    core  0.090933696  0.148001713  0.784190701  0.0000000  1.0000  0.0000
O2    core  0.915677431  0.064713432  0.000661398  0.0000000  1.0000  0.0000
O2    core  0.093043861  0.060141007  0.293901130  0.0000000  1.0000  0.0000
O2    core  0.210054785  0.958289092  0.522761828  0.0000000  1.0000  0.0000
O2    core  0.652050393  0.673413288  0.308754965  0.0000000  1.0000  0.0000
O2    core  0.845896290  0.787793891  0.213714543  0.0000000  1.0000  0.0000
O2    core  0.360520638  0.229953065  0.810141648  0.0000000  1.0000  0.0000
O2    core  0.566153540  0.581150991  0.931111964  0.0000000  1.0000  0.0000
O2    core  0.546191396  0.457150338  0.071233349  0.0000000  1.0000  0.0000
O2    core  0.076293375  0.819742556  0.267845303  0.0000000  1.0000  0.0000
O2    core  0.879640554  0.909499815  0.149256575  0.0000000  1.0000  0.0000
O2    core  0.797085222  0.268999657  0.850515768  0.0000000  1.0000  0.0000
O2    core  0.022450986  0.567041706  0.456124820  0.0000000  1.0000  0.0000
O2    core  0.029182451  0.718993982  0.039401913  0.0000000  1.0000  0.0000
O2    core  0.200994214  0.383395944  0.768202392  0.0000000  1.0000  0.0000
O2    core  0.213659711  0.539233620  0.514275049  0.0000000  1.0000  0.0000
O2    core  0.547339042  0.999820515  0.885899260  0.0000000  1.0000  0.0000
O2    core  0.796948615  0.949267067  0.711280563  0.0000000  1.0000  0.0000
O2    core  0.055021757  0.853308189  0.999945494  0.0000000  1.0000  0.0000
O2    core  0.097486285  0.846671258  0.857472364  0.0000000  1.0000  0.0000
O2    core  0.219633092  0.841142327  0.596238588  0.0000000  1.0000  0.0000
O2    core  0.570822281  0.646580728  0.194460785  0.0000000  1.0000  0.0000
O2    core  0.920725874  0.772465300  0.480154198  0.0000000  1.0000  0.0000
O2    core  0.265377315  0.568002891  0.054797453  0.0000000  1.0000  0.0000
O2    core  0.377668326  0.175308290  0.603636789  0.0000000  1.0000  0.0000
O2    core  0.649800203  0.869785002  0.178907903  0.0000000  1.0000  0.0000
O2    core  0.408463579  0.327052736  0.097719731  0.0000000  1.0000  0.0000
O2    core  0.842231017  0.390105514  0.772954306  0.0000000  1.0000  0.0000
O2    core  0.473527772  0.443809702  0.380835989  0.0000000  1.0000  0.0000
O2    core  0.707082701  0.839775241  0.715985407  0.0000000  1.0000  0.0000
O2    core  0.575208355  0.707528728  0.569067564  0.0000000  1.0000  0.0000
O2    core  0.585839635  0.898608547  0.984001897  0.0000000  1.0000  0.0000
O2    core  0.831730337  0.927550404  0.446410176  0.0000000  1.0000  0.0000
O2    core  0.572645603  0.285779812  0.776368967  0.0000000  1.0000  0.0000
O2    core  0.558737912  0.541944539  0.440037502  0.0000000  1.0000  0.0000
O2    core  0.757713156  0.149948454  0.429418712  0.0000000  1.0000  0.0000
O2    core  0.853035229  0.400173219  0.626287812  0.0000000  1.0000  0.0000
O2    core  0.409852878  0.904337834  0.517819571  0.0000000  1.0000  0.0000
O2    core  0.119351292  0.180056532  0.128720018  0.0000000  1.0000  0.0000
O2    core  0.427123731  0.100514262  0.220805118  0.0000000  1.0000  0.0000
O2    core  0.756921088  0.199806394  0.068916226  0.0000000  1.0000  0.0000
O2    core  0.595518199  0.150140894  0.404552904  0.0000000  1.0000  0.0000
O2    core  0.773947750  0.523211665  0.041647179  0.0000000  1.0000  0.0000
O2    core  0.286128805  0.406635356  0.651665130  0.0000000  1.0000  0.0000
O2    core  0.158565764  0.363542576  0.958014520  0.0000000  1.0000  0.0000
O2    core  0.644575456  0.674452158  0.763924025  0.0000000  1.0000  0.0000
O2    core  0.398516340  0.899311857  0.721615154  0.0000000  1.0000  0.0000
O2    core  0.317592370  0.975656307  0.894551662  0.0000000  1.0000  0.0000
O2    core  0.941799383  0.013632427  0.472537373  0.0000000  1.0000  0.0000
O2    core  0.460873943  0.331562618  0.968639662  0.0000000  1.0000  0.0000
O2    core  0.107836540  0.281517400  0.720086384  0.0000000  1.0000  0.0000
O2    core  0.194923323  0.106090116  0.865763177  0.0000000  1.0000  0.0000
O2    core  0.651575682  0.189232442  0.278981259  0.0000000  1.0000  0.0000
O2    core  0.947460889  0.287690630  0.613180425  0.0000000  1.0000  0.0000
O2    core  0.078885436  0.551541476  0.746346145  0.0000000  1.0000  0.0000
O2    core  0.143509589  0.745708310  0.370975186  0.0000000  1.0000  0.0000
O2    core  0.942517611  0.444645962  0.866344807  0.0000000  1.0000  0.0000
O2    core  0.191611415  0.066340708  0.617159421  0.0000000  1.0000  0.0000
O2    core  0.486444452  0.605756158  0.612731642  0.0000000  1.0000  0.0000
O2    core  0.637436492  0.568330253  0.082468933  0.0000000  1.0000  0.0000
O2    core  0.357193769  0.813916309  0.616732959  0.0000000  1.0000  0.0000
O2    core  0.408445009  0.749201352  0.403974463  0.0000000  1.0000  0.0000
O2    core  0.951746617  0.031338330  0.132131766  0.0000000  1.0000  0.0000
O2    core  0.075881698  0.150565109  0.640468910  0.0000000  1.0000  0.0000
O2    core  0.144575018  0.072719738  0.037582418  0.0000000  1.0000  0.0000
O2    core  0.125414632  0.939847535  0.211872920  0.0000000  1.0000  0.0000
O2    core  0.321224752  0.705042112  0.520649856  0.0000000  1.0000  0.0000
O2    core  0.938035268  0.387665598  0.326134117  0.0000000  1.0000  0.0000
O2    core  0.259474535  0.512690601  0.805562987  0.0000000  1.0000  0.0000
O2    core  0.534044351  0.416248537  0.821161613  0.0000000  1.0000  0.0000
O2    core  0.733988025  0.476752838  0.818060387  0.0000000  1.0000  0.0000
O2    core  0.433331546  0.616535784  0.476350355  0.0000000  1.0000  0.0000
O2    core  0.229172639  0.159090195  0.453320616  0.0000000  1.0000  0.0000
O2    core  0.010359297  0.193029206  0.517565823  0.0000000  1.0000  0.0000
O2    core  0.330576491  0.061515731  0.672711273  0.0000000  1.0000  0.0000
O2    core  0.683460891  0.323490923  0.450377121  0.0000000  1.0000  0.0000
O2    core  0.271129434  0.995396257  0.040853901  0.0000000  1.0000  0.0000
O2    core  0.717447557  0.798343815  0.290557441  0.0000000  1.0000  0.0000
O2    core  0.938016991  0.953664012  0.698272752  0.0000000  1.0000  0.0000
O2    core  0.950994357  0.597734453  0.198961145  0.0000000  1.0000  0.0000
O2    core  0.195669912  0.632058527  0.760470022  0.0000000  1.0000  0.0000
O2    core  0.413587288  0.229987707  0.280624481  0.0000000  1.0000  0.0000
O2    core  0.400513284  0.609371527  0.728332974  0.0000000  1.0000  0.0000
O2    core  0.745649075  0.034526281  0.613529252  0.0000000  1.0000  0.0000
O2    core  0.770030931  0.394694412  0.121266179  0.0000000  1.0000  0.0000
O2    core  0.094613569  0.587997463  0.920245336  0.0000000  1.0000  0.0000
O2    core  0.849526263  0.814982085  0.361816292  0.0000000  1.0000  0.0000
O2    core  0.511415829  0.282337358  0.186409593  0.0000000  1.0000  0.0000
O2    core  0.772636322  0.614783274  0.360152030  0.0000000  1.0000  0.0000
O2    core  0.114529801  0.438639963  0.279525111  0.0000000  1.0000  0.0000
O2    core  0.577482280  0.905288950  0.674678698  0.0000000  1.0000  0.0000
O2    core  0.965991099  0.530013354  0.330952655  0.0000000  1.0000  0.0000
O2    core  0.626504384  0.433295195  0.512359870  0.0000000  1.0000  0.0000
O2    core  0.032295298  0.854654622  0.506890233  0.0000000  1.0000  0.0000
O2    core  0.475178979  0.815529114  0.289535347  0.0000000  1.0000  0.0000
O2    core  0.742475018  0.013694971  0.382889521  0.0000000  1.0000  0.0000
O2    core  0.205951956  0.144235795  0.236804174  0.0000000  1.0000  0.0000
O2    core  0.850245915  0.414892512  0.482002747  0.0000000  1.0000  0.0000
O2    core  0.195988210  0.944038228  0.382932394  0.0000000  1.0000  0.0000
O2    core  0.988377310  0.435271440  0.499189099  0.0000000  1.0000  0.0000
O2    core  0.268484680  0.372745625  0.377404659  0.0000000  1.0000  0.0000
O2    core  0.526806320  0.780540374  0.161037441  0.0000000  1.0000  0.0000
O2    core  0.590180629  0.388550065  0.952097884  0.0000000  1.0000  0.0000
O2    core  0.198443362  0.874740397  0.004741257  0.0000000  1.0000  0.0000
O2    core  0.961599164  0.006833664  0.330610096  0.0000000  1.0000  0.0000
O2    core  0.291300452  0.863770898  0.807871619  0.0000000  1.0000  0.0000
O2    core  0.716057469  0.062703113  0.057332671  0.0000000  1.0000  0.0000
O2    core  0.919663521  0.788872096  0.823460905  0.0000000  1.0000  0.0000
O2    core  0.188524001  0.691150539  0.164252818  0.0000000  1.0000  0.0000
O2    core  0.780922073  0.721559607  0.105338121  0.0000000  1.0000  0.0000
O2    core  0.410090141  0.957347385  0.198416863  0.0000000  1.0000  0.0000
O2    core  0.575031492  0.084415902  0.052015343  0.0000000  1.0000  0.0000
O2    core  0.622127631  0.511857162  0.224780971  0.0000000  1.0000  0.0000
O2    core  0.123496838  0.608628061  0.057857350  0.0000000  1.0000  0.0000
O2    core  0.393405647  0.555761156  0.349901831  0.0000000  1.0000  0.0000
O2    core  0.165517722  0.405416279  0.506300929  0.0000000  1.0000  0.0000
O2    core  0.031478322  0.494170557  0.628715402  0.0000000  1.0000  0.0000
O2    core  0.628024701  0.692518908  0.001412795  0.0000000  1.0000  0.0000
O2    core  0.098356452  0.101723164  0.439920155  0.0000000  1.0000  0.0000
O2    core  0.912150864  0.855861286  0.024328711  0.0000000  1.0000  0.0000
O2    core  0.472716206  0.012380521  0.669540883  0.0000000  1.0000  0.0000
O2    core  0.465519002  0.218521299  0.410445281  0.0000000  1.0000  0.0000
O2    core  0.963350920  0.265680961  0.403733318  0.0000000  1.0000  0.0000
O2    core  0.235625055  0.594400692  0.260549928  0.0000000  1.0000  0.0000
O2    core  0.523676721  0.485660546  0.683760339  0.0000000  1.0000  0.0000
O2    core  0.813271422  0.321123422  0.995153923  0.0000000  1.0000  0.0000
O2    core  0.827261111  0.481921480  0.357043914  0.0000000  1.0000  0.0000
O2    core  0.267177349  0.022591160  0.284178339  0.0000000  1.0000  0.0000
O2    core  0.471496481  0.034789626  0.525403123  0.0000000  1.0000  0.0000
O2    core  0.374335124  0.428362925  0.915541467  0.0000000  1.0000  0.0000
O2    core  0.181251511  0.737523647  0.507411950  0.0000000  1.0000  0.0000
O2    core  0.695686061  0.358407443  0.733250427  0.0000000  1.0000  0.0000
O2    core  0.687124910  0.816194606  0.049135214  0.0000000  1.0000  0.0000
O2    core  0.583651548  0.010197535  0.437154731  0.0000000  1.0000  0.0000
O2    core  0.409113974  0.769944395  0.063015506  0.0000000  1.0000  0.0000
O2    core  0.973311516  0.627760857  0.619904591  0.0000000  1.0000  0.0000
O2    core  0.552243002  0.776245178  0.912506310  0.0000000  1.0000  0.0000
O2    core  0.735223464  0.580830117  0.605976602  0.0000000  1.0000  0.0000
O2    core  0.166633732  0.854667573  0.729157218  0.0000000  1.0000  0.0000
O2    core  0.252138753  0.229778981  0.572728780  0.0000000  1.0000  0.0000
O2    core  0.558920062  0.143106695  0.181354742  0.0000000  1.0000  0.0000
O2    core  0.644734828  0.324545932  0.313864004  0.0000000  1.0000  0.0000
O2    core  0.282379336  0.263474527  0.082718148  0.0000000  1.0000  0.0000
O2    core  0.293969695  0.493773592  0.173605284  0.0000000  1.0000  0.0000
O2    core  0.154672428  0.711598924  0.871275203  0.0000000  1.0000  0.0000
O2    core  0.070568665  0.998500182  0.541304904  0.0000000  1.0000  0.0000
O2    core  0.828961827  0.032829650  0.271994793  0.0000000  1.0000  0.0000
O2    core  0.552598542  0.133442170  0.613120729  0.0000000  1.0000  0.0000
O2    core  0.551104806  0.784009469  0.760516316  0.0000000  1.0000  0.0000
O2    core  0.021221199  0.322830023  0.828707409  0.0000000  1.0000  0.0000
O2    core  0.327367822  0.881763904  0.402589850  0.0000000  1.0000  0.0000
O2    core  0.323294847  0.092809173  0.807911721  0.0000000  1.0000  0.0000
O2    core  0.946851457  0.289405172  0.043459536  0.0000000  1.0000  0.0000
O2    core  0.215447450  0.381380511  0.202554218  0.0000000  1.0000  0.0000
O2    core  0.754555491  0.670527775  0.853217760  0.0000000  1.0000  0.0000
O2    core  0.630205826  0.345306840  0.121476107  0.0000000  1.0000  0.0000
O2    core  0.067476877  0.966484412  0.088684132  0.0000000  1.0000  0.0000
O2    core  0.401051855  0.469695561  0.778569918  0.0000000  1.0000  0.0000
O2    core  0.245208581  0.483254978  0.946484328  0.0000000  1.0000  0.0000
O2    core  0.891969845  0.681308021  0.308593144  0.0000000  1.0000  0.0000
O2    core  0.870641739  0.127377782  0.765142997  0.0000000  1.0000  0.0000
O2    core  0.649307710  0.813058868  0.423171380  0.0000000  1.0000  0.0000
O2    core  0.699241178  0.714190417  0.637833165  0.0000000  1.0000  0.0000
O2    core  0.375256085  0.124695472  0.465783015  0.0000000  1.0000  0.0000
O2    core  0.556433871  0.689846735  0.416736805  0.0000000  1.0000  0.0000
O2    core  0.434957539  0.452607963  0.167785599  0.0000000  1.0000  0.0000
O2    core  0.786840128  0.864419138  0.961214551  0.0000000  1.0000  0.0000
O2    core  0.847455869  0.097989572  0.537537164  0.0000000  1.0000  0.0000
O2    core  0.388228661  0.335508511  0.719170519  0.0000000  1.0000  0.0000
O2    core  0.777018899  0.035576537  0.821862118  0.0000000  1.0000  0.0000
O2    core  0.231952060  0.697686763  0.990642368  0.0000000  1.0000  0.0000
O2    core  0.072843967  0.370270204  0.397129610  0.0000000  1.0000  0.0000
O2    core  0.393454897  0.912538929  0.010709845  0.0000000  1.0000  0.0000
O2    core  0.446075257  0.702073080  0.830821301  0.0000000  1.0000  0.0000
O2    core  0.479437469  0.107874076  0.949897582  0.0000000  1.0000  0.0000
O2    core  0.761385846  0.224927664  0.710044312  0.0000000  1.0000  0.0000
O2    core  0.053631899  0.893820152  0.646082044  0.0000000  1.0000  0.0000
O2    core  0.811556278  0.652743591  0.982995047  0.0000000  1.0000  0.0000
O2    core  0.394015453  0.625588712  0.081127475  0.0000000  1.0000  0.0000
O2    core  0.764259678  0.289748023  0.580686321  0.0000000  1.0000  0.0000
O2    core  0.754415331  0.974368842  0.161945942  0.0000000  1.0000  0.0000
O2    core  0.793130914  0.169614056  0.279509200  0.0000000  1.0000  0.0000
O2    core  0.088863190  0.578727431  0.262650605  0.0000000  1.0000  0.0000
O2    core  0.047498320  0.196899516  0.311617178  0.0000000  1.0000  0.0000
O2    core  0.268756020  0.791767645  0.099234062  0.0000000  1.0000  0.0000
O2    core  0.842191940  0.176917864  0.953309747  0.0000000  1.0000  0.0000
O2    core  0.607800367  0.541907498  0.800393424  0.0000000  1.0000  0.0000
O2    core  0.931074055  0.745952843  0.688026968  0.0000000  1.0000  0.0000
O2    core  0.260928868  0.516359698  0.379502908  0.0000000  1.0000  0.0000
O2    core  0.278631172  0.717481267  0.324736203  0.0000000  1.0000  0.0000
O2    core  0.517373233  0.817478169  0.488875230  0.0000000  1.0000  0.0000
species
Ca core 2.0
polar langevin
O2  2.37 0.313
fix_atom last
library nodump ../Libraries/ml_bop
