grad conv prop thermal
title
This is an example of the calculation of the Allen-Feldman
diffuson contribution to the thermal conductivity in 
amorphous silicon based on one of the structures proposed by
Barkema and Mousseau, Phys. Rev. Lett., 77, 4358 (1996)
that has been relaxed using the GULP Stillinger-Weber
library. The parameters for the thermal conductivity
calculation come from the work of Larkin and McGaughey
(submitted), though it should be noted they are for a 
larger 4096 atom system.
end
cell
  27.664000  27.664000  27.664000  90.000000  90.000000  90.000000
fractional  1   
Si    core 0.0016140 0.6784198 0.2434399 0.00000000 1.00000 0.00000             
Si    core 0.5274922 0.6714375 0.7116606 0.00000000 1.00000 0.00000             
Si    core 0.7214761 0.5571881 0.5801946 0.00000000 1.00000 0.00000             
Si    core 0.6253887 0.3122878 0.6235637 0.00000000 1.00000 0.00000             
Si    core 0.4655348 0.4639616 0.4883691 0.00000000 1.00000 0.00000             
Si    core 0.3241081 0.6016391 0.0307136 0.00000000 1.00000 0.00000             
Si    core 0.4996902 0.8649560 0.9719241 0.00000000 1.00000 0.00000             
Si    core 0.8935228 0.8195320 0.4501285 0.00000000 1.00000 0.00000             
Si    core 0.0226565 0.9387310 0.2177482 0.00000000 1.00000 0.00000             
Si    core 0.9594275 0.0013699 0.9823488 0.00000000 1.00000 0.00000             
Si    core 0.9469089 0.8718309 0.9573684 0.00000000 1.00000 0.00000             
Si    core 0.8895229 0.4623946 0.4622593 0.00000000 1.00000 0.00000             
Si    core 0.4308294 0.5874231 0.4199221 0.00000000 1.00000 0.00000             
Si    core 0.3200739 0.1011023 0.8421008 0.00000000 1.00000 0.00000             
Si    core 0.7992146 0.4326187 0.8284114 0.00000000 1.00000 0.00000             
Si    core 0.5756575 0.7821680 0.2904821 0.00000000 1.00000 0.00000             
Si    core 0.8031586 0.6217290 0.1797861 0.00000000 1.00000 0.00000             
Si    core 0.1999073 0.3346698 0.9483415 0.00000000 1.00000 0.00000             
Si    core 0.9007032 0.3740254 0.1854325 0.00000000 1.00000 0.00000             
Si    core 0.3093761 0.4689333 0.0447183 0.00000000 1.00000 0.00000             
Si    core 0.9157844 0.6503255 0.0600923 0.00000000 1.00000 0.00000             
Si    core 0.1121104 0.8524880 0.2541632 0.00000000 1.00000 0.00000             
Si    core 0.1767547 0.0928783 0.6406279 0.00000000 1.00000 0.00000             
Si    core 0.3684185 0.5200585 0.8655251 0.00000000 1.00000 0.00000             
Si    core 0.0088379 0.5334595 0.6996009 0.00000000 1.00000 0.00000             
Si    core 0.9885315 0.3445208 0.7750015 0.00000000 1.00000 0.00000             
Si    core 0.4653715 0.6561397 0.1322991 0.00000000 1.00000 0.00000             
Si    core 0.8072637 0.6880027 0.3368940 0.00000000 1.00000 0.00000             
Si    core 0.6449084 0.1214104 0.5653024 0.00000000 1.00000 0.00000             
Si    core 0.9945030 0.8011775 0.1939204 0.00000000 1.00000 0.00000             
Si    core 0.1704759 0.7877436 0.5141017 0.00000000 1.00000 0.00000             
Si    core 0.6014279 0.6839580 0.8266490 0.00000000 1.00000 0.00000             
Si    core 0.6072630 0.0992715 0.1254608 0.00000000 1.00000 0.00000             
Si    core 0.3499010 0.6003666 0.4473454 0.00000000 1.00000 0.00000             
Si    core 0.2959161 0.2189065 0.4521928 0.00000000 1.00000 0.00000             
Si    core 0.5654440 0.9756175 0.1341822 0.00000000 1.00000 0.00000             
Si    core 0.3879646 0.2407075 0.7312830 0.00000000 1.00000 0.00000             
Si    core 0.2505375 0.9762824 0.8286499 0.00000000 1.00000 0.00000             
Si    core 0.7897117 0.0970332 0.6578519 0.00000000 1.00000 0.00000             
Si    core 0.3897070 0.0142019 0.0493759 0.00000000 1.00000 0.00000             
Si    core 0.3893675 0.2568472 0.9999324 0.00000000 1.00000 0.00000             
Si    core 0.3893027 0.9190643 0.3168356 0.00000000 1.00000 0.00000             
Si    core 0.1608044 0.0256325 0.3567310 0.00000000 1.00000 0.00000             
Si    core 0.3153046 0.6776720 0.8382579 0.00000000 1.00000 0.00000             
Si    core 0.0429150 0.4681822 0.9524434 0.00000000 1.00000 0.00000             
Si    core 0.8500419 0.3933898 0.7138064 0.00000000 1.00000 0.00000             
Si    core 0.5184936 0.2796598 0.5310929 0.00000000 1.00000 0.00000             
Si    core 0.2398536 0.1784033 0.9266402 0.00000000 1.00000 0.00000             
Si    core 0.5355033 0.7348098 0.9349045 0.00000000 1.00000 0.00000             
Si    core 0.3549147 0.1783282 0.3258544 0.00000000 1.00000 0.00000             
Si    core 0.0456853 0.6598628 0.0318139 0.00000000 1.00000 0.00000             
Si    core 0.2703043 0.0885593 0.0549970 0.00000000 1.00000 0.00000             
Si    core 0.8850560 0.7205525 0.8178584 0.00000000 1.00000 0.00000             
Si    core 0.0098749 0.7733926 0.4841975 0.00000000 1.00000 0.00000             
Si    core 0.2477668 0.7931840 0.4033336 0.00000000 1.00000 0.00000             
Si    core 0.1660160 0.8889250 0.7037454 0.00000000 1.00000 0.00000             
Si    core 0.0648191 0.6789031 0.1136109 0.00000000 1.00000 0.00000             
Si    core 0.2098869 0.4232867 0.3431877 0.00000000 1.00000 0.00000             
Si    core 0.9738128 0.4319367 0.2624308 0.00000000 1.00000 0.00000             
Si    core 0.8398408 0.1575509 0.0151251 0.00000000 1.00000 0.00000             
Si    core 0.0839855 0.1129175 0.5431748 0.00000000 1.00000 0.00000             
Si    core 0.6792708 0.0256587 0.8458376 0.00000000 1.00000 0.00000             
Si    core 0.2952217 0.4175778 0.3402526 0.00000000 1.00000 0.00000             
Si    core 0.1924921 0.0054484 0.6245550 0.00000000 1.00000 0.00000             
Si    core 0.7394151 0.7874658 0.7784731 0.00000000 1.00000 0.00000             
Si    core 0.2539462 0.1860032 0.1320235 0.00000000 1.00000 0.00000             
Si    core 0.5825724 0.4762474 0.5830218 0.00000000 1.00000 0.00000             
Si    core 0.8857491 0.2545105 0.8577926 0.00000000 1.00000 0.00000             
Si    core 0.9999893 0.4357605 0.8864711 0.00000000 1.00000 0.00000             
Si    core 0.2564828 0.1144116 0.6631055 0.00000000 1.00000 0.00000             
Si    core 0.3735648 0.6280026 0.5303965 0.00000000 1.00000 0.00000             
Si    core 0.4961677 0.3553324 0.6385322 0.00000000 1.00000 0.00000             
Si    core 0.4790594 0.7581928 0.0574439 0.00000000 1.00000 0.00000             
Si    core 0.8859263 0.1199415 0.5408715 0.00000000 1.00000 0.00000             
Si    core 0.9498453 0.0640259 0.5630719 0.00000000 1.00000 0.00000             
Si    core 0.0944670 0.3862521 0.3905079 0.00000000 1.00000 0.00000             
Si    core 0.0951957 0.8511131 0.4024925 0.00000000 1.00000 0.00000             
Si    core 0.2730275 0.7198800 0.4416525 0.00000000 1.00000 0.00000             
Si    core 0.1460566 0.6116353 0.2856349 0.00000000 1.00000 0.00000             
Si    core 0.8578007 0.9567894 0.5980999 0.00000000 1.00000 0.00000             
Si    core 0.2509237 0.2717593 0.3251427 0.00000000 1.00000 0.00000             
Si    core 0.6817126 0.1426431 0.7761684 0.00000000 1.00000 0.00000             
Si    core 0.3908262 0.6836274 0.9463066 0.00000000 1.00000 0.00000             
Si    core 0.5271875 0.9866231 0.2126354 0.00000000 1.00000 0.00000             
Si    core 0.0254552 0.7952075 0.6682521 0.00000000 1.00000 0.00000             
Si    core 0.1999356 0.6555365 0.0968732 0.00000000 1.00000 0.00000             
Si    core 0.9717210 0.9070320 0.7157862 0.00000000 1.00000 0.00000             
Si    core 0.3444918 0.5406057 0.2930643 0.00000000 1.00000 0.00000             
Si    core 0.9183260 0.1179267 0.8999280 0.00000000 1.00000 0.00000             
Si    core 0.8696161 0.2027327 0.5749553 0.00000000 1.00000 0.00000             
Si    core 0.4261704 0.1615651 0.0873441 0.00000000 1.00000 0.00000             
Si    core 0.0115558 0.4464227 0.5728390 0.00000000 1.00000 0.00000             
Si    core 0.7227414 0.0131180 0.5627029 0.00000000 1.00000 0.00000             
Si    core 0.6286040 0.3488845 0.7431335 0.00000000 1.00000 0.00000             
Si    core 0.8159556 0.5066926 0.8685716 0.00000000 1.00000 0.00000             
Si    core 0.6404467 0.7545266 0.8573523 0.00000000 1.00000 0.00000             
Si    core 0.3617710 0.7162963 0.7180752 0.00000000 1.00000 0.00000             
Si    core 0.4680189 0.3433207 0.4136453 0.00000000 1.00000 0.00000             
Si    core 0.9155488 0.3664712 0.5563707 0.00000000 1.00000 0.00000             
Si    core 0.9952334 0.2204650 0.9545897 0.00000000 1.00000 0.00000             
Si    core 0.8185926 0.4190866 0.2933407 0.00000000 1.00000 0.00000             
Si    core 0.5448202 0.9415798 0.8674284 0.00000000 1.00000 0.00000             
Si    core 0.3253976 0.5364070 0.6164127 0.00000000 1.00000 0.00000             
Si    core 0.6865503 0.8269738 0.1851565 0.00000000 1.00000 0.00000             
Si    core 0.6454033 0.9539828 0.1513474 0.00000000 1.00000 0.00000             
Si    core 0.1059990 0.9252087 0.2118897 0.00000000 1.00000 0.00000             
Si    core 0.3450806 0.3566454 0.6614616 0.00000000 1.00000 0.00000             
Si    core 0.4082996 0.1931589 0.8015372 0.00000000 1.00000 0.00000             
Si    core 0.8530410 0.0470282 0.1000683 0.00000000 1.00000 0.00000             
Si    core 0.8805853 0.6693032 0.5041338 0.00000000 1.00000 0.00000             
Si    core 0.5014735 0.4943992 0.7055443 0.00000000 1.00000 0.00000             
Si    core 0.0706736 0.5672486 0.2668283 0.00000000 1.00000 0.00000             
Si    core 0.3997649 0.2537550 0.5989779 0.00000000 1.00000 0.00000             
Si    core 0.4641845 0.2747725 0.0368866 0.00000000 1.00000 0.00000             
Si    core 0.8764740 0.8886821 0.3052484 0.00000000 1.00000 0.00000             
Si    core 0.6149208 0.5255507 0.1927040 0.00000000 1.00000 0.00000             
Si    core 0.7186410 0.1704480 0.9418991 0.00000000 1.00000 0.00000             
Si    core 0.3114308 0.0929443 0.5328409 0.00000000 1.00000 0.00000             
Si    core 0.6808590 0.6883734 0.4729111 0.00000000 1.00000 0.00000             
Si    core 0.3193899 0.0786212 0.6174141 0.00000000 1.00000 0.00000             
Si    core 0.4546594 0.2168591 0.5404915 0.00000000 1.00000 0.00000             
Si    core 0.6642963 0.5598921 0.9880763 0.00000000 1.00000 0.00000             
Si    core 0.9720798 0.5165911 0.1633929 0.00000000 1.00000 0.00000             
Si    core 0.2095163 0.6987666 0.5939321 0.00000000 1.00000 0.00000             
Si    core 0.5278878 0.2475066 0.7649289 0.00000000 1.00000 0.00000             
Si    core 0.0888349 0.4407131 0.7529178 0.00000000 1.00000 0.00000             
Si    core 0.7096060 0.2254641 0.1397142 0.00000000 1.00000 0.00000             
Si    core 0.4012260 0.5055496 0.5950747 0.00000000 1.00000 0.00000             
Si    core 0.7482741 0.5982390 0.2399333 0.00000000 1.00000 0.00000             
Si    core 0.5402316 0.7996557 0.7737212 0.00000000 1.00000 0.00000             
Si    core 0.1811864 0.4030394 0.2614982 0.00000000 1.00000 0.00000             
Si    core 0.5337872 0.6216824 0.2258871 0.00000000 1.00000 0.00000             
Si    core 0.9044344 0.9026422 0.5496850 0.00000000 1.00000 0.00000             
Si    core 0.6135199 0.8237924 0.8133915 0.00000000 1.00000 0.00000             
Si    core 0.1932783 0.8408418 0.2768838 0.00000000 1.00000 0.00000             
Si    core 0.2097581 0.7694953 0.0144992 0.00000000 1.00000 0.00000             
Si    core 0.3429903 0.0779804 0.1835432 0.00000000 1.00000 0.00000             
Si    core 0.1115981 0.6731977 0.9764614 0.00000000 1.00000 0.00000             
Si    core 0.2232724 0.5424832 0.4098056 0.00000000 1.00000 0.00000             
Si    core 0.4694792 0.5710492 0.1362866 0.00000000 1.00000 0.00000             
Si    core 0.3439359 0.8814561 0.9364284 0.00000000 1.00000 0.00000             
Si    core 0.9698653 0.0171488 0.4902665 0.00000000 1.00000 0.00000             
Si    core 0.3305917 0.3514253 0.9274067 0.00000000 1.00000 0.00000             
Si    core 0.1390663 0.3293533 0.2516860 0.00000000 1.00000 0.00000             
Si    core 0.6062395 0.8509651 0.3996519 0.00000000 1.00000 0.00000             
Si    core 0.7800656 0.3081046 0.0420147 0.00000000 1.00000 0.00000             
Si    core 0.0799196 0.7893277 0.1989972 0.00000000 1.00000 0.00000             
Si    core 0.4146577 0.9782858 0.3744885 0.00000000 1.00000 0.00000             
Si    core 0.4965023 0.0709859 0.4352542 0.00000000 1.00000 0.00000             
Si    core 0.2671399 0.0443022 0.2861573 0.00000000 1.00000 0.00000             
Si    core 0.0102614 0.4332213 0.0224069 0.00000000 1.00000 0.00000             
Si    core 0.9998756 0.3276607 0.0868937 0.00000000 1.00000 0.00000             
Si    core 0.5566752 0.7467898 0.1769120 0.00000000 1.00000 0.00000             
Si    core 0.2919583 0.9291375 0.1312859 0.00000000 1.00000 0.00000             
Si    core 0.5018393 0.5146068 0.8468181 0.00000000 1.00000 0.00000             
Si    core 0.8935174 0.6353881 0.6975728 0.00000000 1.00000 0.00000             
Si    core 0.0682964 0.9006731 0.0609179 0.00000000 1.00000 0.00000             
Si    core 0.3159086 0.3044713 0.1934806 0.00000000 1.00000 0.00000             
Si    core 0.0426580 0.5043792 0.4511359 0.00000000 1.00000 0.00000             
Si    core 0.0769401 0.2445008 0.9564444 0.00000000 1.00000 0.00000             
Si    core 0.1525070 0.7480502 0.6398675 0.00000000 1.00000 0.00000             
Si    core 0.2010730 0.5924934 0.6693151 0.00000000 1.00000 0.00000             
Si    core 0.1885728 0.0351321 0.4839530 0.00000000 1.00000 0.00000             
Si    core 0.9857448 0.2576758 0.5200274 0.00000000 1.00000 0.00000             
Si    core 0.4627955 0.5462851 0.3507116 0.00000000 1.00000 0.00000             
Si    core 0.7022263 0.8508187 0.9660392 0.00000000 1.00000 0.00000             
Si    core 0.2057059 0.5583376 0.5414901 0.00000000 1.00000 0.00000             
Si    core 0.3964361 0.6751276 0.6508838 0.00000000 1.00000 0.00000             
Si    core 0.5271211 0.6611928 0.3588172 0.00000000 1.00000 0.00000             
Si    core 0.9562105 0.2588708 0.1115813 0.00000000 1.00000 0.00000             
Si    core 0.4207081 0.8761262 0.0981420 0.00000000 1.00000 0.00000             
Si    core 0.7447073 0.5555622 0.4370455 0.00000000 1.00000 0.00000             
Si    core 0.2617772 0.6478792 0.3350318 0.00000000 1.00000 0.00000             
Si    core 0.0549598 0.5165460 0.7722503 0.00000000 1.00000 0.00000             
Si    core 0.5841774 0.3411453 0.2272303 0.00000000 1.00000 0.00000             
Si    core 0.0986833 0.7605027 0.1049477 0.00000000 1.00000 0.00000             
Si    core 0.6529608 0.4896572 0.3139178 0.00000000 1.00000 0.00000             
Si    core 0.9320271 0.8471075 0.8139659 0.00000000 1.00000 0.00000             
Si    core 0.4133087 0.6561008 0.2879411 0.00000000 1.00000 0.00000             
Si    core 0.9217022 0.6485556 0.1439948 0.00000000 1.00000 0.00000             
Si    core 0.2948503 0.9172031 0.6801178 0.00000000 1.00000 0.00000             
Si    core 0.8173570 0.7594775 0.6753571 0.00000000 1.00000 0.00000             
Si    core 0.5539610 0.7822617 0.1005673 0.00000000 1.00000 0.00000             
Si    core 0.7603585 0.9690109 0.1110920 0.00000000 1.00000 0.00000             
Si    core 0.9061134 0.0546399 0.6998964 0.00000000 1.00000 0.00000             
Si    core 0.7895062 0.2992347 0.2272686 0.00000000 1.00000 0.00000             
Si    core 0.0293323 0.8479366 0.9452554 0.00000000 1.00000 0.00000             
Si    core 0.4502516 0.6677979 0.8202315 0.00000000 1.00000 0.00000             
Si    core 0.6303523 0.8152853 0.9935011 0.00000000 1.00000 0.00000             
Si    core 0.5421954 0.1948134 0.2109586 0.00000000 1.00000 0.00000             
Si    core 0.5069130 0.9275778 0.4522611 0.00000000 1.00000 0.00000             
Si    core 0.3937391 0.1100873 0.7936447 0.00000000 1.00000 0.00000             
Si    core 0.9284101 0.9116477 0.8761848 0.00000000 1.00000 0.00000             
Si    core 0.7786121 0.0359474 0.0613433 0.00000000 1.00000 0.00000             
Si    core 0.3695388 0.1232577 0.9668100 0.00000000 1.00000 0.00000             
Si    core 0.6508569 0.8962614 0.6327202 0.00000000 1.00000 0.00000             
Si    core 0.7676391 0.7435536 0.6102602 0.00000000 1.00000 0.00000             
Si    core 0.5904728 0.9212130 0.4477072 0.00000000 1.00000 0.00000             
Si    core 0.1212562 0.9758747 0.5879286 0.00000000 1.00000 0.00000             
Si    core 0.0439539 0.6460074 0.3662846 0.00000000 1.00000 0.00000             
Si    core 0.1310451 0.5815239 0.9514048 0.00000000 1.00000 0.00000             
Si    core 0.5808690 0.2127404 0.7037713 0.00000000 1.00000 0.00000             
Si    core 0.7887907 0.7336678 0.4081566 0.00000000 1.00000 0.00000             
Si    core 0.1262696 0.9049718 0.1281918 0.00000000 1.00000 0.00000             
Si    core 0.6615258 0.2075034 0.4490021 0.00000000 1.00000 0.00000             
Si    core 0.3262120 0.3847701 0.0668909 0.00000000 1.00000 0.00000             
Si    core 0.9729452 0.2023263 0.7922134 0.00000000 1.00000 0.00000             
Si    core 0.9392755 0.2776793 0.6688209 0.00000000 1.00000 0.00000             
Si    core 0.9831973 0.1911437 0.4682327 0.00000000 1.00000 0.00000             
Si    core 0.4693698 0.3247772 0.9093877 0.00000000 1.00000 0.00000             
Si    core 0.1641808 0.3348508 0.8098539 0.00000000 1.00000 0.00000             
Si    core 0.8952036 0.8027110 0.9674112 0.00000000 1.00000 0.00000             
Si    core 0.0037753 0.6476828 0.1662220 0.00000000 1.00000 0.00000             
Si    core 0.8344383 0.6017444 0.7561944 0.00000000 1.00000 0.00000             
Si    core 0.4762430 0.9414362 0.6551051 0.00000000 1.00000 0.00000             
Si    core 0.5085131 0.5525632 0.7683884 0.00000000 1.00000 0.00000             
Si    core 0.9395257 0.5733523 0.0322140 0.00000000 1.00000 0.00000             
Si    core 0.1739702 0.1175796 0.9485555 0.00000000 1.00000 0.00000             
Si    core 0.1391375 0.6728095 0.2270501 0.00000000 1.00000 0.00000             
Si    core 0.7410191 0.3760560 0.8658328 0.00000000 1.00000 0.00000             
Si    core 0.3541000 0.8053723 0.9775502 0.00000000 1.00000 0.00000             
Si    core 0.4098712 0.9362658 0.9177650 0.00000000 1.00000 0.00000             
Si    core 0.5563942 0.0002796 0.3478863 0.00000000 1.00000 0.00000             
Si    core 0.3502485 0.3237511 0.5823642 0.00000000 1.00000 0.00000             
Si    core 0.6277386 0.1392413 0.7098049 0.00000000 1.00000 0.00000             
Si    core 0.6010629 0.4144850 0.4747588 0.00000000 1.00000 0.00000             
Si    core 0.9177538 0.5179509 0.0930304 0.00000000 1.00000 0.00000             
Si    core 0.2208813 0.2125707 0.0031744 0.00000000 1.00000 0.00000             
Si    core 0.4948342 0.4281243 0.8240959 0.00000000 1.00000 0.00000             
Si    core 0.9641369 0.7314706 0.7794522 0.00000000 1.00000 0.00000             
Si    core 0.2777669 0.2035762 0.3693952 0.00000000 1.00000 0.00000             
Si    core 0.8100262 0.7148978 0.4898151 0.00000000 1.00000 0.00000             
Si    core 0.1551747 0.4397293 0.0819296 0.00000000 1.00000 0.00000             
Si    core 0.0299500 0.6762383 0.7665274 0.00000000 1.00000 0.00000             
Si    core 0.7707696 0.5846675 0.5119201 0.00000000 1.00000 0.00000             
Si    core 0.0630643 0.9802076 0.6528493 0.00000000 1.00000 0.00000             
Si    core 0.6182018 0.9010777 0.8538941 0.00000000 1.00000 0.00000             
Si    core 0.7227401 0.8639903 0.0490272 0.00000000 1.00000 0.00000             
Si    core 0.5155412 0.2231439 0.4161016 0.00000000 1.00000 0.00000             
Si    core 0.8022425 0.9110351 0.6465779 0.00000000 1.00000 0.00000             
Si    core 0.5333503 0.3580311 0.8580945 0.00000000 1.00000 0.00000             
Si    core 0.7044968 0.2779732 0.2059806 0.00000000 1.00000 0.00000             
Si    core 0.1879675 0.6758067 0.8524100 0.00000000 1.00000 0.00000             
Si    core 0.8950288 0.0998595 0.0462121 0.00000000 1.00000 0.00000             
Si    core 0.4342038 0.4651221 0.3506595 0.00000000 1.00000 0.00000             
Si    core 0.2527701 0.9049105 0.2730553 0.00000000 1.00000 0.00000             
Si    core 0.6837974 0.1938969 0.2608186 0.00000000 1.00000 0.00000             
Si    core 0.4392696 0.1371575 0.5747676 0.00000000 1.00000 0.00000             
Si    core 0.8111308 0.3545070 0.4215382 0.00000000 1.00000 0.00000             
Si    core 0.0262242 0.6969908 0.5726596 0.00000000 1.00000 0.00000             
Si    core 0.5938763 0.5113772 0.9609284 0.00000000 1.00000 0.00000             
Si    core 0.1092855 0.0420252 0.1369226 0.00000000 1.00000 0.00000             
Si    core 0.1816440 0.4720181 0.0063588 0.00000000 1.00000 0.00000             
Si    core 0.2069185 0.8496697 0.7708214 0.00000000 1.00000 0.00000             
Si    core 0.4306668 0.2470999 0.9235628 0.00000000 1.00000 0.00000             
Si    core 0.0324056 0.5716873 0.1879608 0.00000000 1.00000 0.00000             
Si    core 0.8769733 0.0192730 0.3018777 0.00000000 1.00000 0.00000             
Si    core 0.8825622 0.1852269 0.2821391 0.00000000 1.00000 0.00000             
Si    core 0.8315833 0.5279863 0.1121509 0.00000000 1.00000 0.00000             
Si    core 0.8296376 0.6488362 0.0489173 0.00000000 1.00000 0.00000             
Si    core 0.7644090 0.7221936 0.7316959 0.00000000 1.00000 0.00000             
Si    core 0.9154838 0.5998743 0.8857815 0.00000000 1.00000 0.00000             
Si    core 0.8949761 0.0574665 0.9724449 0.00000000 1.00000 0.00000             
Si    core 0.7176253 0.6071229 0.8693882 0.00000000 1.00000 0.00000             
Si    core 0.4619972 0.6736398 0.0518342 0.00000000 1.00000 0.00000             
Si    core 0.6309072 0.7683908 0.2236800 0.00000000 1.00000 0.00000             
Si    core 0.2734285 0.9679293 0.3930677 0.00000000 1.00000 0.00000             
Si    core 0.3350793 0.9058171 0.7557756 0.00000000 1.00000 0.00000             
Si    core 0.2491400 0.7222246 0.2955922 0.00000000 1.00000 0.00000             
Si    core 0.1972816 0.7791169 0.3374626 0.00000000 1.00000 0.00000             
Si    core 0.5946505 0.1358229 0.3419975 0.00000000 1.00000 0.00000             
Si    core 0.1772974 0.3950668 0.4230363 0.00000000 1.00000 0.00000             
Si    core 0.7758144 0.4264013 0.7446326 0.00000000 1.00000 0.00000             
Si    core 0.5746164 0.7763094 0.4239142 0.00000000 1.00000 0.00000             
Si    core 0.9965846 0.3506681 0.0030616 0.00000000 1.00000 0.00000             
Si    core 0.7990956 0.1347062 0.2048425 0.00000000 1.00000 0.00000             
Si    core 0.6420531 0.2713663 0.6968315 0.00000000 1.00000 0.00000             
Si    core 0.1673782 0.6174946 0.7932781 0.00000000 1.00000 0.00000             
Si    core 0.3219786 0.8291536 0.3829463 0.00000000 1.00000 0.00000             
Si    core 0.7299119 0.8970862 0.5922201 0.00000000 1.00000 0.00000             
Si    core 0.3460580 0.3494136 0.2598637 0.00000000 1.00000 0.00000             
Si    core 0.9737772 0.0272299 0.7961781 0.00000000 1.00000 0.00000             
Si    core 0.0703574 0.1819375 0.1565829 0.00000000 1.00000 0.00000             
Si    core 0.7551947 0.0379432 0.9454089 0.00000000 1.00000 0.00000             
Si    core 0.0779718 0.2224366 0.6260838 0.00000000 1.00000 0.00000             
Si    core 0.8181336 0.2692210 0.5392975 0.00000000 1.00000 0.00000             
Si    core 0.5593138 0.4568920 0.4127465 0.00000000 1.00000 0.00000             
Si    core 0.1464104 0.5339411 0.8795803 0.00000000 1.00000 0.00000             
Si    core 0.0331530 0.3584365 0.8577062 0.00000000 1.00000 0.00000             
Si    core 0.7774467 0.9166909 0.7818227 0.00000000 1.00000 0.00000             
Si    core 0.3782745 0.4076228 0.7827212 0.00000000 1.00000 0.00000             
Si    core 0.1402891 0.1614409 0.5939489 0.00000000 1.00000 0.00000             
Si    core 0.0952666 0.7390844 0.7766311 0.00000000 1.00000 0.00000             
Si    core 0.8469265 0.9292677 0.9895694 0.00000000 1.00000 0.00000             
Si    core 0.7474378 0.0357520 0.7052726 0.00000000 1.00000 0.00000             
Si    core 0.9956075 0.5035960 0.8331685 0.00000000 1.00000 0.00000             
Si    core 0.6434635 0.6410025 0.7667780 0.00000000 1.00000 0.00000             
Si    core 0.5219972 0.5391413 0.0078093 0.00000000 1.00000 0.00000             
Si    core 0.0236829 0.2647585 0.8450839 0.00000000 1.00000 0.00000             
Si    core 0.1639029 0.9784390 0.0174711 0.00000000 1.00000 0.00000             
Si    core 0.6941614 0.9144829 0.3018177 0.00000000 1.00000 0.00000             
Si    core 0.5326085 0.5297098 0.0915416 0.00000000 1.00000 0.00000             
Si    core 0.2571425 0.3972231 0.9270191 0.00000000 1.00000 0.00000             
Si    core 0.6281635 0.1525468 0.0622262 0.00000000 1.00000 0.00000             
Si    core 0.7219756 0.2524230 0.8262831 0.00000000 1.00000 0.00000             
Si    core 0.6038092 0.8630004 0.5675011 0.00000000 1.00000 0.00000             
Si    core 0.1419040 0.3572760 0.0689677 0.00000000 1.00000 0.00000             
Si    core 0.0579294 0.7282951 0.3384620 0.00000000 1.00000 0.00000             
Si    core 0.3453250 0.0329714 0.2577097 0.00000000 1.00000 0.00000             
Si    core 0.8983808 0.0391276 0.2204207 0.00000000 1.00000 0.00000             
Si    core 0.7259162 0.6146981 0.6592853 0.00000000 1.00000 0.00000             
Si    core 0.0344270 0.1086207 0.0002263 0.00000000 1.00000 0.00000             
Si    core 0.1037755 0.3931225 0.8224422 0.00000000 1.00000 0.00000             
Si    core 0.8616982 0.8030318 0.8292337 0.00000000 1.00000 0.00000             
Si    core 0.0468681 0.0625465 0.6706988 0.00000000 1.00000 0.00000             
Si    core 0.5390399 0.9977501 0.6373806 0.00000000 1.00000 0.00000             
Si    core 0.4753723 0.7756067 0.1957385 0.00000000 1.00000 0.00000             
Si    core 0.9279282 0.6813577 0.4329409 0.00000000 1.00000 0.00000             
Si    core 0.8898536 0.6647550 0.3559394 0.00000000 1.00000 0.00000             
Si    core 0.1519157 0.9001295 0.4486271 0.00000000 1.00000 0.00000             
Si    core 0.2817592 0.8835390 0.4971266 0.00000000 1.00000 0.00000             
Si    core 0.4474897 0.6339765 0.9012279 0.00000000 1.00000 0.00000             
Si    core 0.0721697 0.3410951 0.2008280 0.00000000 1.00000 0.00000             
Si    core 0.7333709 0.4714036 0.4473069 0.00000000 1.00000 0.00000             
Si    core 0.3572646 0.0326649 0.7204152 0.00000000 1.00000 0.00000             
Si    core 0.8485498 0.8112963 0.3256094 0.00000000 1.00000 0.00000             
Si    core 0.3073212 0.9596764 0.4677117 0.00000000 1.00000 0.00000             
Si    core 0.8471229 0.2208664 0.4185626 0.00000000 1.00000 0.00000             
Si    core 0.5301308 0.3139046 0.1641140 0.00000000 1.00000 0.00000             
Si    core 0.7769740 0.8039205 0.2814434 0.00000000 1.00000 0.00000             
Si    core 0.8569097 0.5866796 0.5060334 0.00000000 1.00000 0.00000             
Si    core 0.1310434 0.1831773 0.4502320 0.00000000 1.00000 0.00000             
Si    core 0.8147541 0.6788564 0.7868851 0.00000000 1.00000 0.00000             
Si    core 0.0261973 0.1355485 0.7888833 0.00000000 1.00000 0.00000             
Si    core 0.3965200 0.0870587 0.5179366 0.00000000 1.00000 0.00000             
Si    core 0.9509300 0.7620863 0.4249594 0.00000000 1.00000 0.00000             
Si    core 0.7042562 0.7359052 0.4057876 0.00000000 1.00000 0.00000             
Si    core 0.8986857 0.1753285 0.8315131 0.00000000 1.00000 0.00000             
Si    core 0.7204743 0.1615499 0.4023757 0.00000000 1.00000 0.00000             
Si    core 0.6857153 0.7099333 0.2576072 0.00000000 1.00000 0.00000             
Si    core 0.3143528 0.4741366 0.4913721 0.00000000 1.00000 0.00000             
Si    core 0.4100038 0.3992855 0.0713226 0.00000000 1.00000 0.00000             
Si    core 0.6741690 0.6956503 0.9766541 0.00000000 1.00000 0.00000             
Si    core 0.9741855 0.5488694 0.5614952 0.00000000 1.00000 0.00000             
Si    core 0.1226532 0.9370290 0.8622275 0.00000000 1.00000 0.00000             
Si    core 0.3590414 0.7966670 0.6931280 0.00000000 1.00000 0.00000             
Si    core 0.8678565 0.3884860 0.0315245 0.00000000 1.00000 0.00000             
Si    core 0.4882451 0.1829244 0.9095463 0.00000000 1.00000 0.00000             
Si    core 0.9307225 0.3151620 0.4899236 0.00000000 1.00000 0.00000             
Si    core 0.9468598 0.3494182 0.2515367 0.00000000 1.00000 0.00000             
Si    core 0.6593222 0.0418803 0.2673891 0.00000000 1.00000 0.00000             
Si    core 0.9705749 0.8205821 0.1137576 0.00000000 1.00000 0.00000             
Si    core 0.2831864 0.0105419 0.9514726 0.00000000 1.00000 0.00000             
Si    core 0.4674135 0.0928529 0.2975693 0.00000000 1.00000 0.00000             
Si    core 0.7134425 0.3175229 0.9279042 0.00000000 1.00000 0.00000             
Si    core 0.5761297 0.5411239 0.8788309 0.00000000 1.00000 0.00000             
Si    core 0.7093563 0.4490263 0.3682293 0.00000000 1.00000 0.00000             
Si    core 0.6541992 0.4828584 0.6968196 0.00000000 1.00000 0.00000             
Si    core 0.5784201 0.8838628 0.9986162 0.00000000 1.00000 0.00000             
Si    core 0.9414342 0.9090010 0.3544462 0.00000000 1.00000 0.00000             
Si    core 0.5491791 0.1531547 0.0289085 0.00000000 1.00000 0.00000             
Si    core 0.4465795 0.1074360 0.9291929 0.00000000 1.00000 0.00000             
Si    core 0.3672681 0.7361083 0.0950077 0.00000000 1.00000 0.00000             