opti conv mole rigid 

#       miller: 1 0 0
#        shift: 0.000000
# region sizes: 1 1

name urea_100_surf

svectors
4.695612  0.000000
0.000000  5.550830
cartesian region 1
H    core     1.579088   -7.003358   -1.322887    0.4150000  1.0 0.0 2
N    core     1.126882   -6.344226   -1.982019   -0.8300000  1.0 0.0 2
H    core     0.091135   -6.316056   -2.010189    0.4150000  1.0 0.0 2
O    core     3.038734   -5.550832   -2.775413   -0.3800000  1.0 0.0 2
C    core     1.807689   -5.550826   -2.775419    0.3800000  1.0 0.0 2
H    core     0.091134   -4.785599   -3.540646    0.4150000  1.0 0.0 2
N    core     1.126884   -4.757439   -3.568806   -0.8300000  1.0 0.0 2
H    core     1.579089   -4.098300   -4.227945    0.4150000  1.0 0.0 2
cartesian region 2
H    core     3.393450   -1.322893   -4.098308    0.4150000  1.0 0.0 3
N    core     3.845659   -1.982025   -4.757440   -0.8300000  1.0 0.0 3
H    core     4.881407   -2.010184   -4.785599    0.4150000  1.0 0.0 3
O    core     1.933812   -2.775415   -5.550830   -0.3800000  1.0 0.0 3
C    core     3.164842   -2.775415   -5.550830    0.3800000  1.0 0.0 3
H    core     4.881407   -3.540646   -6.316061    0.4150000  1.0 0.0 3
N    core     3.845659   -3.568805   -6.344220   -0.8300000  1.0 0.0 3
H    core     3.393450   -4.227937   -7.003352    0.4150000  1.0 0.0 3
cartesian region 3 rigid z
H    core     1.579088   -7.003358   -6.873717    0.4150000  1.0 0.0 4
N    core     1.126882   -6.344226   -7.532849   -0.8300000  1.0 0.0 4
H    core     0.091135   -6.316056   -7.561019    0.4150000  1.0 0.0 4
O    core     3.038734   -5.550832   -8.326243   -0.3800000  1.0 0.0 4
C    core     1.807689   -5.550826   -8.326249    0.3800000  1.0 0.0 4
H    core     0.091134   -4.785599   -9.091476    0.4150000  1.0 0.0 4
N    core     1.126884   -4.757439   -9.119636   -0.8300000  1.0 0.0 4
H    core     1.579089   -4.098300   -9.778775    0.4150000  1.0 0.0 4
H    core     3.393450   -4.227937   -1.452522    0.4150000  1.0 0.0 1
H    core     3.393450   -1.322893    1.452522    0.4150000  1.0 0.0 1
N    core     3.845659   -1.982025    0.793390   -0.8300000  1.0 0.0 1
H    core     4.881407   -2.010184    0.765231    0.4150000  1.0 0.0 1
O    core     1.933812   -2.775415    0.000000   -0.3800000  1.0 0.0 1
C    core     3.164842   -2.775415    0.000000    0.3800000  1.0 0.0 1
H    core     4.881407   -3.540646   -0.765231    0.4150000  1.0 0.0 1
N    core     3.845659   -3.568805   -0.793390   -0.8300000  1.0 0.0 1

dhkl 5.550830

sbulkenergy -2.196662

lennard 12  6 inter     
C     core O     core  39031.570      35.266000      0.000 40.000
lennard 12  6 inter     
C     core N     core  112494.67      55.387000      0.000 40.000
lennard 12  6 inter     
O     core O     core  11833.864      21.633000      0.000 40.000
lennard 12  6 inter     
N     core O     core  34106.919      33.977000      0.000 40.000
lennard 12  6 inter     
N     core N     core  98301.108      53.362000      0.000 40.000
lennard 12  6 inter     
C     core C     core  128737.61      57.488000      0.000 40.000


morse intra
C    core O    core      6.288000   2.060000  1.23000  0.0000  1.600
morse intra
C    core N    core      4.206000   2.000000  1.32000  0.0000  1.600
morse intra
H    core N    core      3.816000   2.280000  1.02600  0.0000  1.600
three
C    core N    core O    core   5.897000 121.000000  1.600  1.600  3.000
three
N    core H    core C    core   3.252000 120.000000  1.400  1.600  2.600
three
N    core H    core H    core   2.862000 120.000000  1.400  1.400  2.300
three
C    core N    core N    core   8.846000 118.000000  1.600  1.600  2.800
torsion
O    cor C    cor N    cor H    cor   0.260200  -2  1.40  1.40  1.30  0.00
torsion
N    cor C    cor N    cor H    cor   0.002170  -2  1.60  1.60  1.30  0.00
torsion
O    cor C    cor N    cor N    cor   0.434000  -2  1.60  1.60  3.00  0.00
