opti conp prop phon noden
cell
4.000000   4.000000   4.000000  90.000000  90.000000  90.000000
fractional    4
Ni    core 0.0000000 0.0000000 0.0000000 0.00000000 1.0000 0.00000              
Ni    core 0.0000000 0.5000000 0.5000000 0.00000000 1.0000 0.00000              
Ni    core 0.5000000 0.0000000 0.5000000 0.00000000 1.0000 0.00000              
Ni    core 0.5000000 0.5000000 0.0000000 0.00000000 1.0000 0.00000              
library suttonchen
cutmany 0.5
dump example17a.grs
