opti mole conp prop rigid prt_var 
cell
16.382    4.737      9.907    90.0000  104.6810   90.0000
fractional
O   core   0.06690   0.32280   0.33480  -0.6962 
O   core   0.12710   0.04360   0.51360  -0.7069 
N   core   0.09500  -0.04660   0.14670  -0.5852 
C1  core   0.10990   0.11380   0.38720   0.6078 
C2  core   0.14960  -0.06010   0.29150   0.2375 
C2  core   0.23770   0.05400   0.29800  -0.2803 
C2  core   0.28320  -0.07590   0.19790   0.0196 
C2  core   0.37070   0.03770   0.21350   0.1223 
C2  core   0.41350  -0.06860   0.10530  -0.2966 
H1  core   0.10270   0.11820   0.11080   0.3919 
H1  core   0.03870  -0.06670   0.14750   0.3246 
H1  core   0.11320  -0.18100   0.09400   0.3803 
H2  core   0.15160  -0.24900   0.32160   0.0837 
H3  core   0.26880   0.03460   0.39490   0.0716 
H3  core   0.23090   0.26180   0.27760   0.0922 
H3  core   0.25180  -0.05070   0.10360   0.0029 
H3  core   0.28730  -0.28200   0.21080   0.0281 
H3  core   0.36500   0.23740   0.20320  -0.0093 
H3  core   0.40130   0.01100   0.30010   0.0021 
H3  core   0.38410  -0.02800   0.00490   0.0712 
H3  core   0.41850  -0.27900   0.10510   0.0666 
H3  core   0.46480   0.00320   0.12210   0.0721 
#
space
P 21/C
#
#6-12 williams potential
#
buck inter
O  core  O  core  57610.17469  0.25252  301.32041  0.0  15.0 
O  core  N  core  74707.30990  0.26881  636.74386  0.0  15.0 
O  core  C1 core  61013.57316  0.26455  350.07640  0.0  15.0 
O  core  C2 core  37702.16694  0.26455  321.48231  0.0  15.0 
O  core  H1 core   3245.30232  0.26595    0.00000  0.0  15.0 
O  core  H2 core  13213.33536  0.26595  141.58874  0.0  15.0 
O  core  H3 core  13213.33536  0.26595  141.58874  0.0  15.0 
N  core  N  core  96878.41049  0.28735 1345.55352  0.0  15.0 
N  core  C1 core  79120.74459  0.28248  739.77398  0.0  15.0 
N  core  C2 core  48891.14613  0.28248  679.34955  0.0  15.0 
N  core  H1 core   4208.41992  0.28409    0.00000  0.0  15.0 
N  core  H2 core  17134.69443  0.28409  299.20230  0.0  15.0 
N  core  H3 core  17134.69443  0.28409  299.20230  0.0  15.0 
C1 core  C1 core  64618.03196  0.27777  406.72149  0.0  15.0 
C1 core  C2 core  39929.47310  0.27777  373.50065  0.0  15.0 
C1 core  H1 core   3437.02292  0.27932    0.00000  0.0  15.0 
C1 core  H2 core  13993.93093  0.27932  164.49890  0.0  15.0 
C1 core  H3 core  13993.93093  0.27932  164.49890  0.0  15.0 
C2 core  C2 core  24673.65183  0.27777  342.99327  0.0  15.0 
C2 core  H1 core   2123.84237  0.27932    0.00000  0.0  15.0 
C2 core  H2 core   8647.28111  0.27932  151.06270  0.0  15.0 
C2 core  H3 core   8647.28111  0.27932  151.06270  0.0  15.0 
H1 core  H1 core    182.81470  0.28089    0.00000  0.0  15.0 
H1 core  H2 core    744.33497  0.28089    0.00000  0.0  15.0 
H1 core  H3 core    744.33497  0.28089    0.00000  0.0  15.0 
H2 core  H2 core   3030.57979  0.28089   66.53174  0.0  15.0 
H2 core  H3 core   3030.57979  0.28089   66.53174  0.0  15.0 
H3 core  H3 core   3030.57979  0.28089   66.53174  0.0  15.0 
cutp 15.0 mdf 5.0
dump every example75.res
