# 
# Keywords:
# 
opti nomod phon noden ocell rfo
# 
# Options:
# 
cell
4.225106   4.225106   8.5  90.0 90.0 90.0 1 1 1 0 0 0
fractional 
Mg    core  0.000000  0.000000  0.000000 0.0 1.0 0.0 0 0 0           
Mg    core  0.000000  0.000000  0.500000 0.0 1.0 0.0 1 1 1           
Mg    core  0.000000  0.500000  0.250000 0.0 1.0 0.0 1 1 1           
Mg    core  0.000000  0.500000  0.750000 0.0 1.0 0.0 1 1 1           
Mg    core  0.500000  0.000000  0.250000 0.0 1.0 0.0 1 1 1           
Mg    core  0.500000  0.000000  0.750000 0.0 1.0 0.0 1 1 1           
Mg    core  0.500000  0.500000  0.000000 0.0 1.0 0.0 1 1 1           
Mg    core  0.500000  0.500000  0.500000 0.0 1.0 0.0 1 1 1           
O     core  0.500000  0.500000  0.250000 0.0 1.0 0.0 1 1 1           
O     core  0.500000  0.500000  0.750000 0.0 1.0 0.0 1 1 1           
O     core  0.500000  0.000000  0.000000 0.0 1.0 0.0 1 1 1           
O     core  0.500000  0.000000  0.500000 0.0 1.0 0.0 1 1 1           
O     core  0.000000  0.500000  0.000000 0.0 1.0 0.0 1 1 1           
O     core  0.000000  0.500000  0.500000 0.0 1.0 0.0 1 1 1           
O     core  0.000000  0.000000  0.250000 0.0 1.0 0.0 1 1 1           
O     core  0.000000  0.000000  0.750000 0.0 1.0 0.0 1 1 1           
scan_cell 0.0 0.0 0.0 20.0 20.0 0.0 40
species   2
Mg     core    2.000000                  
O      core   -2.000000                  
buck     
O     core Mg    core  1346.60000     0.298400  0.000000      0.00  8.00
buck     
O     core O     core  22764.3000     0.149000  20.37000      0.00  8.00
dump example65.res
