opti conp mole prop phon noden rigid
switch rfo gnorm 0.1
cutp 10 mdf 2 

cell
   6.977547  12.074138  17.043402  90.000000  90.000000  90.000000
fractional  1
C1    core 0.2218805 0.4469945 0.6602045 0.13060000 1.00000 0.00000
C1    core 0.2991205 0.3402466 0.6585079 -0.1601000 1.00000 0.00000
C1    core 0.1490301 0.4883215 0.7303671 -0.1601000 1.00000 0.00000
C1    core 0.3031932 0.2762697 0.7268354 -0.2499000 1.00000 0.00000
C1    core 0.1542613 0.4244987 0.7984498 -0.2499000 1.00000 0.00000
C1    core 0.2333963 0.3191108 0.7969562 0.28990000 1.00000 0.00000
C2    core 0.2397779 0.5008385 0.5178182 0.71620000 1.00000 0.00000
C3    core 0.2253521 0.6031650 0.4690411 -0.5097000 1.00000 0.00000
H1    core 0.3601648 0.3069305 0.6050023 0.15360000 1.00000 0.00000
H1    core 0.0891890 0.5714197 0.7321867 0.15360000 1.00000 0.00000
H1    core 0.3648823 0.1937372 0.7259979 0.17030000 1.00000 0.00000
H1    core 0.0954744 0.4570530 0.8525824 0.17030000 1.00000 0.00000
H2    core 0.1082200 0.6549701 0.4901572 0.14230000 1.00000 0.00000
H2    core 0.1969708 0.5817226 0.4080905 0.14230000 1.00000 0.00000
H2    core 0.3585011 0.6498908 0.4731506 0.14230000 1.00000 0.00000
H3    core 0.2029670 0.6006113 0.6094556 0.23850000 1.00000 0.00000
H4    core 0.2271303 0.3121692 0.9082729 0.35750000 1.00000 0.00000
N     core 0.2215205 0.5203525 0.5947315 -0.4369000 1.00000 0.00000
O1    core 0.2453334 0.2598988 0.8642886 -0.5074999 1.00000 0.00000
O2    core 0.2632017 0.4100676 0.4888555 -0.5333000 1.00000 0.00000

space
P c a b

epsilon kcal
O2      0.2100  3.32240
C2      0.0860  3.81600
C3      0.1094  3.81600
H2      0.0157  2.97400
N       0.1700  3.64800
H3      0.0157  1.20000
C1      0.0860  3.81600
H1      0.0150  2.91800
O1      0.2104  3.44200
H4      0.0000  0.00000
lennard epsilon geometric 12 6 x13 kcal all 0.5
10.0

coul o14 1/6
X X 7.0

#no pots 10: total bonds 20
harm bond kcal
C2 O2   1296.000   1.2140 
C2 C3    656.600   1.5080 
C2 N     956.400   1.3450 
C1 N     744.600   1.4220 
C1 C1    956.800   1.3870 
C1 O1    772.200   1.3620 
C3 H2    674.600   1.0920 
H3 N     820.400   1.0090 
C1 H1    688.600   1.0870 
H4 O1    739.200   0.9740 

#no pots 13: total angles 31
three bond kcal
C2 C3 O2    136.060 123.1101 
C2 N  O2    151.660 122.0301 
N  C2 C1    128.580 123.7101 
C2 C3 N     135.720 115.1500 
C1 C1 N     135.940 119.8901 
C1 C1 C1    134.360 119.9701 
C1 C1 O1    139.700 119.9401 
C3 C2 H2     94.400 109.6800 
N  C2 H3     98.420 118.4601 
C3 H2 H2     78.860 108.3500 
N  C1 H3     94.720 115.9400 
C1 C1 H1     96.920 120.0101 
O1 C1 H4     97.700 109.4700 

#no pots 18: total dihedrals 44
torsion bond kcal
C1 N  C2 O2    2.5000    2.0000  180.0001
C2 N  C1 C1    0.4500    2.0000  180.0001
C3 C2 N  C1    2.5000    2.0000  180.0001
C1 C1 C1 N     3.6250    2.0000  180.0001
C1 C1 C1 C1    3.6250    2.0000  180.0001
C1 C1 C1 O1    3.6250    2.0000  180.0001
H2 C3 C2 O2    0.8000    1.0000    0.0000
H2 C3 C2 O2    0.0800    3.0000  180.0001
H3 N  C2 O2    2.0000    1.0000    0.0000
H3 N  C2 O2    2.5000    2.0000  180.0001
C3 C2 N  H3    2.5000    2.0000  180.0001
H2 C3 C2 N     0.0000    2.0000  180.0001
H1 C1 C1 N     3.6250    2.0000  180.0001
C1 C1 n  H3    0.4500    2.0000  180.0001
C1 C1 C1 H1    3.6250    2.0000  180.0001
H1 C1 C1 H1    3.6250    2.0000  180.0001
C1 C1 O1 H4    0.9000    2.0000  180.0001
H1 C1 C1 O1    3.6250    2.0000  180.0001

#no pots 5: total impropers 8
# gulp finds 14, 1x#1, 2x#2, 2x#3, 1x#4, 8*#5 
# but AMBER only has 8 - 1x#1-4 and 4x#5
# so divide these values of 10.5, 1.1, 1.1,1.1,1.1 by 1,2,2,1,2 respectively.
torsion improper kcal
C3 C2  N O2   10.5000    2.0000  180.0001
C1 C1 C1 N     0.5500    2.0000  180.0001
C1 C1 C1 O1    0.5500    2.0000  180.0001
C2 N  C1 H3    1.1000    2.0000  180.0001
C1 C1 C1 H1    0.5500    2.0000  180.0001
