#
# Keywords:
#
opti conp prop comp
#
# Options:
#
#  Lattice parameter is deliberately set below the experimental value
#  so that it changes during optimisation.
#
cell
3.410   3.410   3.410  90.000000  90.000000  90.000000
fractional
Cu    core 0.0000000 0.0000000 0.0000000 0.00000000 1.00000 0.00000
space
225
library nodump meam_2nn
