phon noden gruen
cell
   4.212000   4.212000   4.212000  90.000000  90.000000  90.000000
fractional
Mg   core  0.000000   0.000000   0.000000 
Mg   core  0.000000   0.500000   0.500000 
Mg   core  0.500000   0.000000   0.500000 
Mg   core  0.500000   0.500000   0.000000 
O    core  0.500000   0.500000   0.500000 
O    core  0.500000   0.000000   0.000000 
O    core  0.000000   0.500000   0.000000 
O    core  0.000000   0.000000   0.500000 
O    shel  0.500000   0.500000   0.500000 
O    shel  0.500000   0.000000   0.000000 
O    shel  0.000000   0.500000   0.000000 
O    shel  0.000000   0.000000   0.500000 
species
Mg core  2.0
O  core  0.8
O  shel -2.8
kpoint 1
0.1 0.2 0.3
buck
O    shel Mg   core    1295.553402 0.300000    0.00000  0.000  8.000
buck
O    shel O    shel   22764.000000 0.149000   27.88000  0.000 12.000
spring 
O 74.92
